data/CVRPLIB/Vrp-Set-XML100/instances/XML100_2312_14.vrp
NAME : XML100_2312_14
COMMENT : Generated by Queiroga, Sadykov, Uchoa, and Vidal (2021)
TYPE : CVRP
DIMENSION : 101
EDGE_WEIGHT_TYPE : EUC_2D
CAPACITY : 6
NODE_COORD_SECTION
1    500  500 
2    309  378 
3    553  137 
4    959  411 
5    939  438 
6    462  980 
7    142  311 
8    727  882 
9    236  815 
10   311  287 
11   906  586 
12   806  540 
13   551  793 
14   416  453 
15   740  801 
16   166  325 
17   947  457 
18   514  188 
19   213  310 
20   883  603 
21   969  842 
22   936  518 
23   748  511 
24   316  117 
25   301  690 
26   923  544 
27   821  15  
28   940  750 
29   396  466 
30   984  717 
31   135  399 
32   616  684 
33   955  527 
34   700  47  
35   432  83  
36   977  811 
37   867  513 
38   677  18  
39   758  868 
40   271  238 
41   355  622 
42   710  548 
43   182  343 
44   654  638 
45   256  715 
46   829  632 
47   600  332 
48   906  483 
49   56   479 
50   829  522 
51   445  972 
52   719  270 
53   100  500 
54   113  133 
55   28   465 
56   929  496 
57   873  452 
58   781  466 
59   284  985 
60   904  161 
61   602  573 
62   834  619 
63   154  220 
64   800  935 
65   852  480 
66   17   610 
67   954  776 
68   933  856 
69   892  492 
70   802  625 
71   375  674 
72   97   306 
73   69   168 
74   636  26  
75   871  470 
76   126  786 
77   965  713 
78   531  114 
79   903  435 
80   309  875 
81   89   359 
82   653  950 
83   105  301 
84   838  897 
85   258  158 
86   986  745 
87   329  298 
88   848  693 
89   165  85  
90   792  617 
91   901  845 
92   939  416 
93   116  680 
94   154  307 
95   296  706 
96   836  769 
97   835  788 
98   89   256 
99   877  807 
100  401  228 
101  615  680 
DEMAND_SECTION
1    0   
2    1   
3    1   
4    1   
5    1   
6    1   
7    1   
8    1   
9    1   
10   1   
11   1   
12   1   
13   1   
14   1   
15   1   
16   1   
17   1   
18   1   
19   1   
20   1   
21   1   
22   1   
23   1   
24   1   
25   1   
26   1   
27   1   
28   1   
29   1   
30   1   
31   1   
32   1   
33   1   
34   1   
35   1   
36   1   
37   1   
38   1   
39   1   
40   1   
41   1   
42   1   
43   1   
44   1   
45   1   
46   1   
47   1   
48   1   
49   1   
50   1   
51   1   
52   1   
53   1   
54   1   
55   1   
56   1   
57   1   
58   1   
59   1   
60   1   
61   1   
62   1   
63   1   
64   1   
65   1   
66   1   
67   1   
68   1   
69   1   
70   1   
71   1   
72   1   
73   1   
74   1   
75   1   
76   1   
77   1   
78   1   
79   1   
80   1   
81   1   
82   1   
83   1   
84   1   
85   1   
86   1   
87   1   
88   1   
89   1   
90   1   
91   1   
92   1   
93   1   
94   1   
95   1   
96   1   
97   1   
98   1   
99   1   
100  1   
101  1   
DEPOT_SECTION
1
-1
EOF
