data/CVRPLIB/Vrp-Set-XML100/solutions/XML100_2312_14.sol
Route #1: 51 59 26 33 37 73
Route #2: 99 34 77 2 17 46
Route #3: 1 18 93 6 15 42
Route #4: 40 24 94 44 8 70
Route #5: 89 69 45 61 19 10
Route #6: 79 58 50 5 81 12
Route #7: 68 47 55 21 32 25
Route #8: 95 98 90 67 20 35
Route #9: 56 16 4 3 91 78
Route #10: 75 92 65 54 48 52
Route #11: 57 64 74 36 49 11
Route #12: 96 83 63 7 38 14
Route #13: 23 84 88 53 72 62
Route #14: 87 27 66 85 29 76
Route #15: 60 100 31 43 41 22
Route #16: 13 86 9 28
Route #17: 30 80 71 82 97 39
Cost 17564
